        0       49       26       54       35       50       36       63       55       69       71       72       75
       49        0       54       16       35       25       48       26       58       53       67       78       65
       26       54        0       50       22       41       14       55       30       50       48       46       53
       54       16       50        0       28       12       41       11       46       38       53       65       50
       35       35       22       28        0       18       13       33       26       34       40       47       42
       50       25       41       12       18        0       30       15       34       29       42       54       40
       36       48       14       41       13       30        0       44       18       35       35       37       39
       63       26       55       11       33       15       44        0       45       31       48       62       44
       55       58       30       46       26       34       18       45        0       23       17       21       23
       69       53       50       38       34       29       35       31       23        0       18       34       13
       71       67       48       53       40       42       35       48       17       18        0       16        8
       72       78       46       65       47       54       37       62       21       34       16        0       24
       75       65       53       50       42       40       39       44       23       13        8       24        0
